RT is False
Default write of storage_offers_DA.csv just to have a file (but constraint should be inactive)
Reading model...
...model read.
creating competitive generators file...
...competitive generators recorded.
Loading data...
.. day-ahead data read.
Compiling instance...
...instance created.
Creating Offer Mitigation (model will solve as dispatch if TRUE)...
NOTE: storage offers will not be mitigated
...storage offer mitigation file created
Converting model to MPEC...
...converted
NOTE: initial MIP solve with only storage competitive to get feasible solution
Solving...

Welcome to IBM(R) ILOG(R) CPLEX(R) Interactive Optimizer 12.9.0.0
  with Simplex, Mixed Integer & Barrier Optimizers
5725-A06 5725-A29 5724-Y48 5724-Y49 5724-Y54 5724-Y55 5655-Y21
Copyright IBM Corp. 1988, 2019.  All Rights Reserved.

Type 'help' for a list of available commands.
Type 'help' followed by a command name for more
information on commands.

CPLEX> Logfile 'cplex.log' closed.
Logfile 'C:\Users\Luke\Desktop\test919\logs\tmp4k3ejg6v.cplex.log' open.
CPLEX> New value for parallel optimization mode: -1
CPLEX> New value for mixed integer optimality gap tolerance: 0.01
CPLEX> New value for integrality tolerance: 1e-09
CPLEX> New value for feasibility tolerance: 0.01
CPLEX> New value for deterministic time limit in ticks: 75000
CPLEX> Problem 'C:\Users\Luke\Desktop\test919\logs\tmpohypzse1.pyomo.lp' read.
Read time = 0.20 sec. (14.73 ticks)
CPLEX> Problem name         : C:\Users\Luke\Desktop\test919\logs\tmpohypzse1.pyomo.lp
Objective sense      : Maximize
Variables            :   53805  [Nneg: 1,  Box: 22000,  Free: 4464,
                                 Binary: 27340]
Objective nonzeros   :    9070
Linear constraints   :  123205  [Less: 41346,  Greater: 59096,  Equal: 22763]
  Nonzeros           :  291891
  RHS nonzeros       :   67581

Variables            : Min LB: -5000.000        Max UB: 1000000.       
Objective nonzeros   : Min   : 0.1000000        Max   : 722.0000       
Linear constraints   :
  Nonzeros           : Min   : 0.1000000        Max   : 1000000.       
  RHS nonzeros       : Min   : 0.1000000        Max   : 1000000.       
CPLEX> CPXPARAM_Parallel                                -1
CPXPARAM_Simplex_Tolerances_Feasibility          0.01
CPXPARAM_DetTimeLimit                            75000
CPXPARAM_MIP_Tolerances_MIPGap                   0.01
CPXPARAM_MIP_Tolerances_Integrality              1.0000000000000001e-09
Tried aggregator 3 times.
MIP Presolve eliminated 88214 rows and 18591 columns.
MIP Presolve added 3490 rows and 0 columns.
MIP Presolve modified 25005 coefficients.
Aggregator did 12998 substitutions.
Reduced MIP has 25483 rows, 21737 columns, and 72510 nonzeros.
Reduced MIP has 8586 binaries, 0 generals, 0 SOSs, and 0 indicators.
Presolve time = 0.23 sec. (174.19 ticks)
Probing fixed 402 vars, tightened 2925 bounds.
Probing time = 1.33 sec. (917.11 ticks)
Tried aggregator 2 times.
MIP Presolve eliminated 905 rows and 804 columns.
MIP Presolve modified 2282 coefficients.
Aggregator did 44 substitutions.
Reduced MIP has 24534 rows, 20889 columns, and 69764 nonzeros.
Reduced MIP has 8184 binaries, 0 generals, 0 SOSs, and 0 indicators.
Presolve time = 0.11 sec. (73.14 ticks)
Probing time = 0.02 sec. (16.46 ticks)
Clique table members: 6278.
MIP emphasis: balance optimality and feasibility.
MIP search method: dynamic search.
Parallel mode: opportunistic, using up to 24 threads.
Root relaxation solution time = 0.64 sec. (706.72 ticks)

        Nodes                                         Cuts/
   Node  Left     Objective  IInf  Best Integer    Best Bound    ItCnt     Gap

      0     0     2935.9639   869                   2935.9639     7953         
      0     0     2935.9639    75                    Cuts: 50     7979         
      0     0     2935.9639    64                    Cuts: 40     7997         
      0     0     2935.9639    59                    Cuts: 19     8003         
      0     0     2935.9639    59                     Cuts: 9     8003         
      0    10    infeasible                         2882.0348     8094         
Elapsed time = 8.86 sec. (6262.14 ticks, tree = 0.02 MB, solutions = 0)
    442   163     2799.9424    28                   2871.6976    10337         
    887   414     2627.0269    20                   2871.6976    11964         
*   925+  433                         2736.7957     2871.6976             4.93%
   1366   245     2846.0082     4     2736.7957     2866.3663    14653    4.73%
   1719   313     2846.0082     2     2736.7957     2866.2859    15061    4.73%
*  1891   384      integral     0     2831.8720     2851.4702    15472    0.69%
   2181   366     2747.3324     9     2831.8720     2851.4702    28475    0.69%

Cover cuts applied:  1
Implied bound cuts applied:  3
Flow cuts applied:  43
Mixed integer rounding cuts applied:  3
Gomory fractional cuts applied:  13

Root node processing (before b&c):
  Real time             =    8.52 sec. (6253.85 ticks)
Parallel b&c, 24 threads:
  Real time             =    3.77 sec. (1399.76 ticks)
  Sync time (average)   =    0.22 sec.
  Wait time (average)   =    0.00 sec.
                          ------------
Total (root+branch&cut) =   12.28 sec. (7653.60 ticks)

Solution pool: 2 solutions saved.

MIP - Integer optimal, tolerance (0.01/1e-06):  Objective =  2.8318719720e+03
Current MIP best bound =  2.8501308444e+03 (gap = 18.2589, 0.64%)
Solution time =   12.30 sec.  Iterations = 42983  Nodes = 2185 (39)
Deterministic time = 7653.76 ticks  (622.41 ticks/sec)

CPLEX> Incumbent solution written to file 'C:\Users\Luke\Desktop\test919\logs\tmponp0q739.cplex.sol'.
CPLEX> NOTE: no warmstart specified for MIP iteration, default behavior is true
NOTE: resolving with all competitive generators using storage-only solution to warmstart
Solving...

Welcome to IBM(R) ILOG(R) CPLEX(R) Interactive Optimizer 12.9.0.0
  with Simplex, Mixed Integer & Barrier Optimizers
5725-A06 5725-A29 5724-Y48 5724-Y49 5724-Y54 5724-Y55 5655-Y21
Copyright IBM Corp. 1988, 2019.  All Rights Reserved.

Type 'help' for a list of available commands.
Type 'help' followed by a command name for more
information on commands.

CPLEX> Logfile 'cplex.log' closed.
Logfile 'C:\Users\Luke\Desktop\test919\logs\tmp7lw0n4f2.cplex.log' open.
CPLEX> New value for parallel optimization mode: -1
CPLEX> New value for mixed integer optimality gap tolerance: 0.01
CPLEX> New value for integrality tolerance: 1e-09
CPLEX> New value for feasibility tolerance: 0.01
CPLEX> New value for deterministic time limit in ticks: 75000
CPLEX> Problem 'C:\Users\Luke\Desktop\test919\logs\tmpdkf0xmy0.pyomo.lp' read.
Read time = 0.20 sec. (14.75 ticks)
CPLEX> MIP start file 'C:\Users\Luke\Desktop\test919\logs\tmphmhnc1tg.cplex.mst' read.
CPLEX> Problem name         : C:\Users\Luke\Desktop\test919\logs\tmpdkf0xmy0.pyomo.lp
Objective sense      : Maximize
Variables            :   54525  [Nneg: 1,  Box: 22720,  Free: 4464,
                                 Binary: 27340]
Objective nonzeros   :    9790
Linear constraints   :  123205  [Less: 41346,  Greater: 59096,  Equal: 22763]
  Nonzeros           :  291891
  RHS nonzeros       :   67581

Variables            : Min LB: -5000.000        Max UB: 1000000.       
Objective nonzeros   : Min   : 0.1000000        Max   : 722.0000       
Linear constraints   :
  Nonzeros           : Min   : 0.1000000        Max   : 1000000.       
  RHS nonzeros       : Min   : 0.1000000        Max   : 1000000.       
CPLEX> CPXPARAM_Parallel                                -1
CPXPARAM_Simplex_Tolerances_Feasibility          0.01
CPXPARAM_DetTimeLimit                            75000
CPXPARAM_MIP_Tolerances_MIPGap                   0.01
CPXPARAM_MIP_Tolerances_Integrality              1.0000000000000001e-09
Warning:  No solution found from 1 MIP starts.
Retaining values of one MIP start for possible repair.
Tried aggregator 3 times.
MIP Presolve eliminated 88214 rows and 19311 columns.
MIP Presolve added 3490 rows and 0 columns.
MIP Presolve modified 25005 coefficients.
Aggregator did 12998 substitutions.
Reduced MIP has 25483 rows, 21737 columns, and 72510 nonzeros.
Reduced MIP has 8586 binaries, 0 generals, 0 SOSs, and 0 indicators.
Presolve time = 0.25 sec. (174.55 ticks)
Probing fixed 402 vars, tightened 2925 bounds.
Probing time = 1.34 sec. (917.11 ticks)
Tried aggregator 2 times.
MIP Presolve eliminated 905 rows and 804 columns.
MIP Presolve modified 2282 coefficients.
Aggregator did 44 substitutions.
Reduced MIP has 24534 rows, 20889 columns, and 69764 nonzeros.
Reduced MIP has 8184 binaries, 0 generals, 0 SOSs, and 0 indicators.
Presolve time = 0.11 sec. (73.14 ticks)
Probing time = 0.03 sec. (16.46 ticks)
Clique table members: 6278.
MIP emphasis: balance optimality and feasibility.
MIP search method: dynamic search.
Parallel mode: opportunistic, using up to 24 threads.
Root relaxation solution time = 0.66 sec. (706.72 ticks)

        Nodes                                         Cuts/
   Node  Left     Objective  IInf  Best Integer    Best Bound    ItCnt     Gap

      0     0     2935.9639   869                   2935.9639     7953         
      0     0     2935.9639    75                    Cuts: 50     7979         
      0     0     2935.9639    64                    Cuts: 40     7997         
      0     0     2935.9639    59                    Cuts: 19     8003         
      0     0     2935.9639    59                     Cuts: 9     8003         
Repair heuristic found nothing.
      0    12    infeasible                       Impl Bds: 1     8045         
Elapsed time = 9.23 sec. (6389.87 ticks, tree = 0.02 MB, solutions = 0)
    446   233    -8846.7243    24                   2866.3663     9824         
*   754   289      integral     0     2549.7441     2866.3663     9944   12.42%
*   864   411      integral     0     2731.0926     2866.3663    10274    4.95%
*  1045   398      integral     0     2768.7253     2866.3663    10116    3.53%
   1436   164     2840.3051     3     2768.7253     2857.5615    10931    3.21%
   1733   245     2843.0371    29     2768.7253     2857.5615    11542    3.21%
   2013   309     2796.8427     3     2768.7253     2857.5615    11869    3.21%
   2288   347     2846.0082     3     2768.7253     2857.5615    12141    3.21%
   2693   277        cutoff           2768.7253     2857.5615    15622    3.21%
   4279   314     2837.5750     1     2768.7253     2837.5750    17421    2.49%
Elapsed time = 16.19 sec. (9064.77 ticks, tree = 2.68 MB, solutions = 4)
*  4643   454      integral     0     2831.8720     2837.5750    18308    0.20%

Implied bound cuts applied:  3
Flow cuts applied:  44
Mixed integer rounding cuts applied:  3
Gomory fractional cuts applied:  13

Root node processing (before b&c):
  Real time             =    8.89 sec. (6382.81 ticks)
Parallel b&c, 24 threads:
  Real time             =    8.20 sec. (3383.37 ticks)
  Sync time (average)   =    0.23 sec.
  Wait time (average)   =    0.00 sec.
                          ------------
Total (root+branch&cut) =   17.09 sec. (9766.17 ticks)

Solution pool: 7 solutions saved.

MIP - Integer optimal, tolerance (0.01/1e-06):  Objective =  2.8318719720e+03
Current MIP best bound =  2.8375750396e+03 (gap = 5.70307, 0.20%)
Solution time =   17.11 sec.  Iterations = 20704  Nodes = 4912 (31)
Deterministic time = 9766.33 ticks  (570.83 ticks/sec)

CPLEX> Incumbent solution written to file 'C:\Users\Luke\Desktop\test919\logs\tmpt97mvcr4.cplex.sol'.
CPLEX> Exporting results... 
